************************************************************************
file with basedata            : mf34_.bas
initial value random generator: 1409022699
************************************************************************
projects                      :  1
jobs (incl. supersource/sink ):  32
horizon                       :  245
RESOURCES
  - renewable                 :  2   R
  - nonrenewable              :  2   N
  - doubly constrained        :  0   D
************************************************************************
PROJECT INFORMATION:
pronr.  #jobs rel.date duedate tardcost  MPM-Time
    1     30      0       36       13       36
************************************************************************
PRECEDENCE RELATIONS:
jobnr.    #modes  #successors   successors
   1        1          3           2   3   4
   2        3          2          10  22
   3        3          1          11
   4        3          3           5   9  23
   5        3          3           6   7   8
   6        3          2          10  13
   7        3          3          16  18  19
   8        3          3          14  17  30
   9        3          3          14  28  31
  10        3          2          15  17
  11        3          2          12  21
  12        3          3          16  17  26
  13        3          2          14  18
  14        3          1          16
  15        3          1          26
  16        3          1          29
  17        3          2          29  31
  18        3          2          21  24
  19        3          1          20
  20        3          2          21  22
  21        3          2          25  26
  22        3          2          24  25
  23        3          3          24  25  31
  24        3          1          27
  25        3          1          27
  26        3          1          27
  27        3          1          28
  28        3          2          29  30
  29        3          1          32
  30        3          1          32
  31        3          1          32
  32        1          0        
************************************************************************
REQUESTS/DURATIONS:
jobnr. mode duration  R 1  R 2  N 1  N 2
------------------------------------------------------------------------
  1      1     0       0    0    0    0
  2      1     2       0    7    6    3
         2     7       0    1    6    3
         3    10       9    0    6    1
  3      1     5       0    6    9    7
         2     5       8    0    8    7
         3     8       8    0    7    7
  4      1     1       7    0    9    9
         2     2       6    0    5    9
         3     6       4    0    3    9
  5      1     6       6    0    7    9
         2     8       4    0    6    9
         3    10       0    4    5    8
  6      1     1       7    0    7   10
         2     4       5    0    6    9
         3     9       1    0    5    9
  7      1     2       0    6    4    8
         2     6       6    0    3    7
         3     9       0    6    3    5
  8      1     1       0    3    7    8
         2     3       5    0    5    8
         3     5       0    1    4    8
  9      1     3       8    0    6    8
         2     5       7    0    5    4
         3     5       0    4    6    4
 10      1     2       7    0    8    5
         2     4       6    0    7    4
         3     9       0    7    7    3
 11      1     7       4    0    3    8
         2    10       4    0    3    7
         3    10       0    2    3    7
 12      1     2       9    0    9    7
         2     5       5    0    7    6
         3     7       5    0    2    3
 13      1     1       8    0    7    5
         2     3       0    7    7    5
         3    10       8    0    7    2
 14      1     2       8    0    8    2
         2     7       8    0    8    1
         3    10       0    7    7    1
 15      1     3       5    0    9    9
         2     9       2    0    9    6
         3     9       1    0    8    7
 16      1     7       0    9    9    3
         2     9       0    9    8    2
         3    10       5    0    7    2
 17      1     1       0    5    3    8
         2     5       2    0    2    8
         3     5       0    2    3    7
 18      1     1       0   10    7    7
         2     3       0    7    5    6
         3     5       7    0    4    4
 19      1     3       8    0    9    8
         2     9       5    0    9    8
         3    10       0    2    9    8
 20      1     3       0    6    7    8
         2     7       7    0    7    8
         3     9       6    0    2    6
 21      1     7       6    0    5    5
         2     9       0    8    2    3
         3    10       0    7    2    2
 22      1     2       5    0    7    6
         2     8       0    8    6    3
         3    10       0    3    5    3
 23      1     2       8    0    9    4
         2     3       0    5    6    4
         3     3       7    0    7    4
 24      1     2       0    6    7    9
         2     5       6    0    6    6
         3     6       5    0    6    5
 25      1     4       6    0    9    4
         2     5       0    2    7    4
         3     9       3    0    3    4
 26      1     5       0    6    7    8
         2     8       5    0    7    8
         3    10       5    0    7    6
 27      1     3       7    0    4    3
         2     7       6    0    4    2
         3     8       0    2    3    2
 28      1     1       0    2    9    7
         2     7       0    2    5    4
         3     7       5    0    5    2
 29      1     5       0    3    5    6
         2     7       7    0    3    6
         3     9       7    0    2    4
 30      1     1       7    0    2    4
         2     6       0    7    1    3
         3     8       0    4    1    3
 31      1     1       0    5    2    7
         2     6       6    0    2    7
         3     9       0    2    1    6
 32      1     0       0    0    0    0
************************************************************************
RESOURCEAVAILABILITIES:
  R 1  R 2  N 1  N 2
   22   13  153  155
************************************************************************
